NAME : random89.762.tour
COMMENT : Length = 762
COMMENT : Found by LKH [Keld Helsgaun] Mon Dec 30 21:13:43 2024
TYPE : TOUR
DIMENSION : 89
TOUR_SECTION
1
64
23
54
86
28
58
25
69
36
41
73
43
37
24
14
77
21
38
57
35
2
26
18
44
17
82
49
81
55
29
39
8
5
60
4
27
88
19
83
67
75
87
7
84
76
20
45
34
42
63
72
89
51
46
66
62
80
12
71
33
32
56
65
47
48
15
52
59
61
6
74
70
22
30
68
10
13
40
50
85
9
31
11
3
79
16
53
78
-1
EOF
